proyfinal/src/viki/013/experimentInOfficeAgust.take6.output/b9cb65c0-2397-41d2-bc86-138a1f3ef8da.als.dat
{'cnf.clauses': '118081',
 'cnf.totvars': '69608',
 'conflict literals': '11',
 'conflicts': '9',
 'decisions': '4846',
 'memused.mb': '17.61',
 'outcome': 'UNSAT',
 'propagations': '26623',
 'restarts': '1',
 'solver.msecs': 34,
 'task.msecs': 89}
