proyfinal/src/viki/013/experimentInOfficeAgust.take6.output/b9cb65c0-2397-41d2-bc86-138a1f3ef8da.als.out
Reading from standard input... Use '--help' for help.
============================[ Problem Statistics ]=============================
|                                                                             |
|  Number of variables:         69608                                         |
|  Number of clauses:          118081                                         |
|  Parse time:                   0.03 s                                       |
|                                                                             |
============================[ Search Statistics ]==============================
| Conflicts |          ORIGINAL         |          LEARNT          | Progress |
|           |    Vars  Clauses Literals |    Limit  Clauses Lit/Cl |          |
===============================================================================
===============================================================================
restarts              : 1
conflicts             : 9              (263 /sec)
decisions             : 4846           (0.00 % random) (141837 /sec)
propagations          : 26623          (779225 /sec)
conflict literals     : 11             (0.00 % deleted)
Memory used           : 17.61 MB
CPU time              : 0.034166 s

UNSATISFIABLE
